\ Model Sudoku
\ LP format - for model browsing. Use MPS format to capture full model detail.
Minimize
 
Subject To
 cell[0,0]: v[0,0,0] + v[0,0,1] + v[0,0,2] + v[0,0,3] + v[0,0,4] + v[0,0,5]
   + v[0,0,6] + v[0,0,7] + v[0,0,8] = 1
 cell[0,1]: v[0,1,3] = 1
 cell[0,2]: v[0,2,0] + v[0,2,1] + v[0,2,2] + v[0,2,3] + v[0,2,4] + v[0,2,5]
   + v[0,2,6] + v[0,2,7] + v[0,2,8] = 1
 cell[0,3]: v[0,3,0] + v[0,3,1] + v[0,3,2] + v[0,3,3] + v[0,3,4] + v[0,3,5]
   + v[0,3,6] + v[0,3,7] + v[0,3,8] = 1
 cell[0,4]: v[0,4,0] + v[0,4,1] + v[0,4,2] + v[0,4,3] + v[0,4,4] + v[0,4,5]
   + v[0,4,6] + v[0,4,7] + v[0,4,8] = 1
 cell[0,5]: v[0,5,0] + v[0,5,1] + v[0,5,2] + v[0,5,3] + v[0,5,4] + v[0,5,5]
   + v[0,5,6] + v[0,5,7] + v[0,5,8] = 1
 cell[0,6]: v[0,6,0] = 1
 cell[0,7]: v[0,7,6] = 1
 cell[0,8]: v[0,8,8] = 1
 cell[1,0]: v[1,0,0] + v[1,0,1] + v[1,0,2] + v[1,0,3] + v[1,0,4] + v[1,0,5]
   + v[1,0,6] + v[1,0,7] + v[1,0,8] = 1
 cell[1,1]: v[1,1,0] + v[1,1,1] + v[1,1,2] + v[1,1,3] + v[1,1,4] + v[1,1,5]
   + v[1,1,6] + v[1,1,7] + v[1,1,8] = 1
 cell[1,2]: v[1,2,1] = 1
 cell[1,3]: v[1,3,0] + v[1,3,1] + v[1,3,2] + v[1,3,3] + v[1,3,4] + v[1,3,5]
   + v[1,3,6] + v[1,3,7] + v[1,3,8] = 1
 cell[1,4]: v[1,4,0] + v[1,4,1] + v[1,4,2] + v[1,4,3] + v[1,4,4] + v[1,4,5]
   + v[1,4,6] + v[1,4,7] + v[1,4,8] = 1
 cell[1,5]: v[1,5,7] = 1
 cell[1,6]: v[1,6,0] + v[1,6,1] + v[1,6,2] + v[1,6,3] + v[1,6,4] + v[1,6,5]
   + v[1,6,6] + v[1,6,7] + v[1,6,8] = 1
 cell[1,7]: v[1,7,4] = 1
 cell[1,8]: v[1,8,3] = 1
 cell[2,0]: v[2,0,0] + v[2,0,1] + v[2,0,2] + v[2,0,3] + v[2,0,4] + v[2,0,5]
   + v[2,0,6] + v[2,0,7] + v[2,0,8] = 1
 cell[2,1]: v[2,1,0] + v[2,1,1] + v[2,1,2] + v[2,1,3] + v[2,1,4] + v[2,1,5]
   + v[2,1,6] + v[2,1,7] + v[2,1,8] = 1
 cell[2,2]: v[2,2,5] = 1
 cell[2,3]: v[2,3,0] + v[2,3,1] + v[2,3,2] + v[2,3,3] + v[2,3,4] + v[2,3,5]
   + v[2,3,6] + v[2,3,7] + v[2,3,8] = 1
 cell[2,4]: v[2,4,0] + v[2,4,1] + v[2,4,2] + v[2,4,3] + v[2,4,4] + v[2,4,5]
   + v[2,4,6] + v[2,4,7] + v[2,4,8] = 1
 cell[2,5]: v[2,5,4] = 1
 cell[2,6]: v[2,6,0] + v[2,6,1] + v[2,6,2] + v[2,6,3] + v[2,6,4] + v[2,6,5]
   + v[2,6,6] + v[2,6,7] + v[2,6,8] = 1
 cell[2,7]: v[2,7,0] + v[2,7,1] + v[2,7,2] + v[2,7,3] + v[2,7,4] + v[2,7,5]
   + v[2,7,6] + v[2,7,7] + v[2,7,8] = 1
 cell[2,8]: v[2,8,7] = 1
 cell[3,0]: v[3,0,0] + v[3,0,1] + v[3,0,2] + v[3,0,3] + v[3,0,4] + v[3,0,5]
   + v[3,0,6] + v[3,0,7] + v[3,0,8] = 1
 cell[3,1]: v[3,1,7] = 1
 cell[3,2]: v[3,2,0] + v[3,2,1] + v[3,2,2] + v[3,2,3] + v[3,2,4] + v[3,2,5]
   + v[3,2,6] + v[3,2,7] + v[3,2,8] = 1
 cell[3,3]: v[3,3,0] + v[3,3,1] + v[3,3,2] + v[3,3,3] + v[3,3,4] + v[3,3,5]
   + v[3,3,6] + v[3,3,7] + v[3,3,8] = 1
 cell[3,4]: v[3,4,6] = 1
 cell[3,5]: v[3,5,0] + v[3,5,1] + v[3,5,2] + v[3,5,3] + v[3,5,4] + v[3,5,5]
   + v[3,5,6] + v[3,5,7] + v[3,5,8] = 1
 cell[3,6]: v[3,6,8] = 1
 cell[3,7]: v[3,7,0] = 1
 cell[3,8]: v[3,8,0] + v[3,8,1] + v[3,8,2] + v[3,8,3] + v[3,8,4] + v[3,8,5]
   + v[3,8,6] + v[3,8,7] + v[3,8,8] = 1
 cell[4,0]: v[4,0,0] + v[4,0,1] + v[4,0,2] + v[4,0,3] + v[4,0,4] + v[4,0,5]
   + v[4,0,6] + v[4,0,7] + v[4,0,8] = 1
 cell[4,1]: v[4,1,4] = 1
 cell[4,2]: v[4,2,0] + v[4,2,1] + v[4,2,2] + v[4,2,3] + v[4,2,4] + v[4,2,5]
   + v[4,2,6] + v[4,2,7] + v[4,2,8] = 1
 cell[4,3]: v[4,3,0] + v[4,3,1] + v[4,3,2] + v[4,3,3] + v[4,3,4] + v[4,3,5]
   + v[4,3,6] + v[4,3,7] + v[4,3,8] = 1
 cell[4,4]: v[4,4,8] = 1
 cell[4,5]: v[4,5,0] + v[4,5,1] + v[4,5,2] + v[4,5,3] + v[4,5,4] + v[4,5,5]
   + v[4,5,6] + v[4,5,7] + v[4,5,8] = 1
 cell[4,6]: v[4,6,0] + v[4,6,1] + v[4,6,2] + v[4,6,3] + v[4,6,4] + v[4,6,5]
   + v[4,6,6] + v[4,6,7] + v[4,6,8] = 1
 cell[4,7]: v[4,7,2] = 1
 cell[4,8]: v[4,8,0] + v[4,8,1] + v[4,8,2] + v[4,8,3] + v[4,8,4] + v[4,8,5]
   + v[4,8,6] + v[4,8,7] + v[4,8,8] = 1
 cell[5,0]: v[5,0,0] + v[5,0,1] + v[5,0,2] + v[5,0,3] + v[5,0,4] + v[5,0,5]
   + v[5,0,6] + v[5,0,7] + v[5,0,8] = 1
 cell[5,1]: v[5,1,0] = 1
 cell[5,2]: v[5,2,8] = 1
 cell[5,3]: v[5,3,0] + v[5,3,1] + v[5,3,2] + v[5,3,3] + v[5,3,4] + v[5,3,5]
   + v[5,3,6] + v[5,3,7] + v[5,3,8] = 1
 cell[5,4]: v[5,4,5] = 1
 cell[5,5]: v[5,5,0] + v[5,5,1] + v[5,5,2] + v[5,5,3] + v[5,5,4] + v[5,5,5]
   + v[5,5,6] + v[5,5,7] + v[5,5,8] = 1
 cell[5,6]: v[5,6,0] + v[5,6,1] + v[5,6,2] + v[5,6,3] + v[5,6,4] + v[5,6,5]
   + v[5,6,6] + v[5,6,7] + v[5,6,8] = 1
 cell[5,7]: v[5,7,3] = 1
 cell[5,8]: v[5,8,0] + v[5,8,1] + v[5,8,2] + v[5,8,3] + v[5,8,4] + v[5,8,5]
   + v[5,8,6] + v[5,8,7] + v[5,8,8] = 1
 cell[6,0]: v[6,0,2] = 1
 cell[6,1]: v[6,1,0] + v[6,1,1] + v[6,1,2] + v[6,1,3] + v[6,1,4] + v[6,1,5]
   + v[6,1,6] + v[6,1,7] + v[6,1,8] = 1
 cell[6,2]: v[6,2,0] + v[6,2,1] + v[6,2,2] + v[6,2,3] + v[6,2,4] + v[6,2,5]
   + v[6,2,6] + v[6,2,7] + v[6,2,8] = 1
 cell[6,3]: v[6,3,3] = 1
 cell[6,4]: v[6,4,0] + v[6,4,1] + v[6,4,2] + v[6,4,3] + v[6,4,4] + v[6,4,5]
   + v[6,4,6] + v[6,4,7] + v[6,4,8] = 1
 cell[6,5]: v[6,5,0] + v[6,5,1] + v[6,5,2] + v[6,5,3] + v[6,5,4] + v[6,5,5]
   + v[6,5,6] + v[6,5,7] + v[6,5,8] = 1
 cell[6,6]: v[6,6,6] = 1
 cell[6,7]: v[6,7,0] + v[6,7,1] + v[6,7,2] + v[6,7,3] + v[6,7,4] + v[6,7,5]
   + v[6,7,6] + v[6,7,7] + v[6,7,8] = 1
 cell[6,8]: v[6,8,0] + v[6,8,1] + v[6,8,2] + v[6,8,3] + v[6,8,4] + v[6,8,5]
   + v[6,8,6] + v[6,8,7] + v[6,8,8] = 1
 cell[7,0]: v[7,0,4] = 1
 cell[7,1]: v[7,1,6] = 1
 cell[7,2]: v[7,2,0] + v[7,2,1] + v[7,2,2] + v[7,2,3] + v[7,2,4] + v[7,2,5]
   + v[7,2,6] + v[7,2,7] + v[7,2,8] = 1
 cell[7,3]: v[7,3,0] = 1
 cell[7,4]: v[7,4,0] + v[7,4,1] + v[7,4,2] + v[7,4,3] + v[7,4,4] + v[7,4,5]
   + v[7,4,6] + v[7,4,7] + v[7,4,8] = 1
 cell[7,5]: v[7,5,0] + v[7,5,1] + v[7,5,2] + v[7,5,3] + v[7,5,4] + v[7,5,5]
   + v[7,5,6] + v[7,5,7] + v[7,5,8] = 1
 cell[7,6]: v[7,6,1] = 1
 cell[7,7]: v[7,7,0] + v[7,7,1] + v[7,7,2] + v[7,7,3] + v[7,7,4] + v[7,7,5]
   + v[7,7,6] + v[7,7,7] + v[7,7,8] = 1
 cell[7,8]: v[7,8,0] + v[7,8,1] + v[7,8,2] + v[7,8,3] + v[7,8,4] + v[7,8,5]
   + v[7,8,6] + v[7,8,7] + v[7,8,8] = 1
 cell[8,0]: v[8,0,8] = 1
 cell[8,1]: v[8,1,1] = 1
 cell[8,2]: v[8,2,7] = 1
 cell[8,3]: v[8,3,0] + v[8,3,1] + v[8,3,2] + v[8,3,3] + v[8,3,4] + v[8,3,5]
   + v[8,3,6] + v[8,3,7] + v[8,3,8] = 1
 cell[8,4]: v[8,4,0] + v[8,4,1] + v[8,4,2] + v[8,4,3] + v[8,4,4] + v[8,4,5]
   + v[8,4,6] + v[8,4,7] + v[8,4,8] = 1
 cell[8,5]: v[8,5,0] + v[8,5,1] + v[8,5,2] + v[8,5,3] + v[8,5,4] + v[8,5,5]
   + v[8,5,6] + v[8,5,7] + v[8,5,8] = 1
 cell[8,6]: v[8,6,0] + v[8,6,1] + v[8,6,2] + v[8,6,3] + v[8,6,4] + v[8,6,5]
   + v[8,6,6] + v[8,6,7] + v[8,6,8] = 1
 cell[8,7]: v[8,7,5] = 1
 cell[8,8]: v[8,8,0] + v[8,8,1] + v[8,8,2] + v[8,8,3] + v[8,8,4] + v[8,8,5]
   + v[8,8,6] + v[8,8,7] + v[8,8,8] = 1
 row[0,1]: v[0,0,1] + v[0,2,1] + v[0,3,1] + v[0,4,1] + v[0,5,1] = 1
 row[0,2]: v[0,0,2] + v[0,2,2] + v[0,3,2] + v[0,4,2] + v[0,5,2] = 1
 row[0,4]: v[0,0,4] + v[0,2,4] + v[0,3,4] + v[0,4,4] + v[0,5,4] = 1
 row[0,5]: v[0,0,5] + v[0,2,5] + v[0,3,5] + v[0,4,5] + v[0,5,5] = 1
 row[0,7]: v[0,0,7] + v[0,2,7] + v[0,3,7] + v[0,4,7] + v[0,5,7] = 1
 row[1,0]: v[1,0,0] + v[1,1,0] + v[1,3,0] + v[1,4,0] + v[1,6,0] = 1
 row[1,2]: v[1,0,2] + v[1,1,2] + v[1,3,2] + v[1,4,2] + v[1,6,2] = 1
 row[1,5]: v[1,0,5] + v[1,1,5] + v[1,3,5] + v[1,4,5] + v[1,6,5] = 1
 row[1,6]: v[1,0,6] + v[1,1,6] + v[1,3,6] + v[1,4,6] + v[1,6,6] = 1
 row[1,8]: v[1,0,8] + v[1,1,8] + v[1,3,8] + v[1,4,8] + v[1,6,8] = 1
 row[2,0]: v[2,0,0] + v[2,1,0] + v[2,3,0] + v[2,4,0] + v[2,6,0] + v[2,7,0]
   = 1
 row[2,1]: v[2,0,1] + v[2,1,1] + v[2,3,1] + v[2,4,1] + v[2,6,1] + v[2,7,1]
   = 1
 row[2,2]: v[2,0,2] + v[2,1,2] + v[2,3,2] + v[2,4,2] + v[2,6,2] + v[2,7,2]
   = 1
 row[2,3]: v[2,0,3] + v[2,1,3] + v[2,3,3] + v[2,4,3] + v[2,6,3] + v[2,7,3]
   = 1
 row[2,6]: v[2,0,6] + v[2,1,6] + v[2,3,6] + v[2,4,6] + v[2,6,6] + v[2,7,6]
   = 1
 row[2,8]: v[2,0,8] + v[2,1,8] + v[2,3,8] + v[2,4,8] + v[2,6,8] + v[2,7,8]
   = 1
 row[3,1]: v[3,0,1] + v[3,2,1] + v[3,3,1] + v[3,5,1] + v[3,8,1] = 1
 row[3,2]: v[3,0,2] + v[3,2,2] + v[3,3,2] + v[3,5,2] + v[3,8,2] = 1
 row[3,3]: v[3,0,3] + v[3,2,3] + v[3,3,3] + v[3,5,3] + v[3,8,3] = 1
 row[3,4]: v[3,0,4] + v[3,2,4] + v[3,3,4] + v[3,5,4] + v[3,8,4] = 1
 row[3,5]: v[3,0,5] + v[3,2,5] + v[3,3,5] + v[3,5,5] + v[3,8,5] = 1
 row[4,0]: v[4,0,0] + v[4,2,0] + v[4,3,0] + v[4,5,0] + v[4,6,0] + v[4,8,0]
   = 1
 row[4,1]: v[4,0,1] + v[4,2,1] + v[4,3,1] + v[4,5,1] + v[4,6,1] + v[4,8,1]
   = 1
 row[4,3]: v[4,0,3] + v[4,2,3] + v[4,3,3] + v[4,5,3] + v[4,6,3] + v[4,8,3]
   = 1
 row[4,5]: v[4,0,5] + v[4,2,5] + v[4,3,5] + v[4,5,5] + v[4,6,5] + v[4,8,5]
   = 1
 row[4,6]: v[4,0,6] + v[4,2,6] + v[4,3,6] + v[4,5,6] + v[4,6,6] + v[4,8,6]
   = 1
 row[4,7]: v[4,0,7] + v[4,2,7] + v[4,3,7] + v[4,5,7] + v[4,6,7] + v[4,8,7]
   = 1
 row[5,1]: v[5,0,1] + v[5,3,1] + v[5,5,1] + v[5,6,1] + v[5,8,1] = 1
 row[5,2]: v[5,0,2] + v[5,3,2] + v[5,5,2] + v[5,6,2] + v[5,8,2] = 1
 row[5,4]: v[5,0,4] + v[5,3,4] + v[5,5,4] + v[5,6,4] + v[5,8,4] = 1
 row[5,6]: v[5,0,6] + v[5,3,6] + v[5,5,6] + v[5,6,6] + v[5,8,6] = 1
 row[5,7]: v[5,0,7] + v[5,3,7] + v[5,5,7] + v[5,6,7] + v[5,8,7] = 1
 row[6,0]: v[6,1,0] + v[6,2,0] + v[6,4,0] + v[6,5,0] + v[6,7,0] + v[6,8,0]
   = 1
 row[6,1]: v[6,1,1] + v[6,2,1] + v[6,4,1] + v[6,5,1] + v[6,7,1] + v[6,8,1]
   = 1
 row[6,4]: v[6,1,4] + v[6,2,4] + v[6,4,4] + v[6,5,4] + v[6,7,4] + v[6,8,4]
   = 1
 row[6,5]: v[6,1,5] + v[6,2,5] + v[6,4,5] + v[6,5,5] + v[6,7,5] + v[6,8,5]
   = 1
 row[6,7]: v[6,1,7] + v[6,2,7] + v[6,4,7] + v[6,5,7] + v[6,7,7] + v[6,8,7]
   = 1
 row[6,8]: v[6,1,8] + v[6,2,8] + v[6,4,8] + v[6,5,8] + v[6,7,8] + v[6,8,8]
   = 1
 row[7,2]: v[7,2,2] + v[7,4,2] + v[7,5,2] + v[7,7,2] + v[7,8,2] = 1
 row[7,3]: v[7,2,3] + v[7,4,3] + v[7,5,3] + v[7,7,3] + v[7,8,3] = 1
 row[7,5]: v[7,2,5] + v[7,4,5] + v[7,5,5] + v[7,7,5] + v[7,8,5] = 1
 row[7,7]: v[7,2,7] + v[7,4,7] + v[7,5,7] + v[7,7,7] + v[7,8,7] = 1
 row[7,8]: v[7,2,8] + v[7,4,8] + v[7,5,8] + v[7,7,8] + v[7,8,8] = 1
 row[8,0]: v[8,3,0] + v[8,4,0] + v[8,5,0] + v[8,6,0] + v[8,8,0] = 1
 row[8,2]: v[8,3,2] + v[8,4,2] + v[8,5,2] + v[8,6,2] + v[8,8,2] = 1
 row[8,3]: v[8,3,3] + v[8,4,3] + v[8,5,3] + v[8,6,3] + v[8,8,3] = 1
 row[8,4]: v[8,3,4] + v[8,4,4] + v[8,5,4] + v[8,6,4] + v[8,8,4] = 1
 row[8,6]: v[8,3,6] + v[8,4,6] + v[8,5,6] + v[8,6,6] + v[8,8,6] = 1
 column[0,0]: v[0,0,0] + v[1,0,0] + v[2,0,0] + v[3,0,0] + v[4,0,0]
   + v[5,0,0] = 1
 column[0,1]: v[0,0,1] + v[1,0,1] + v[2,0,1] + v[3,0,1] + v[4,0,1]
   + v[5,0,1] = 1
 column[0,3]: v[0,0,3] + v[1,0,3] + v[2,0,3] + v[3,0,3] + v[4,0,3]
   + v[5,0,3] = 1
 column[0,5]: v[0,0,5] + v[1,0,5] + v[2,0,5] + v[3,0,5] + v[4,0,5]
   + v[5,0,5] = 1
 column[0,6]: v[0,0,6] + v[1,0,6] + v[2,0,6] + v[3,0,6] + v[4,0,6]
   + v[5,0,6] = 1
 column[0,7]: v[0,0,7] + v[1,0,7] + v[2,0,7] + v[3,0,7] + v[4,0,7]
   + v[5,0,7] = 1
 column[1,2]: v[1,1,2] + v[2,1,2] + v[6,1,2] = 1
 column[1,5]: v[1,1,5] + v[2,1,5] + v[6,1,5] = 1
 column[1,8]: v[1,1,8] + v[2,1,8] + v[6,1,8] = 1
 column[2,0]: v[0,2,0] + v[3,2,0] + v[4,2,0] + v[6,2,0] + v[7,2,0] = 1
 column[2,2]: v[0,2,2] + v[3,2,2] + v[4,2,2] + v[6,2,2] + v[7,2,2] = 1
 column[2,3]: v[0,2,3] + v[3,2,3] + v[4,2,3] + v[6,2,3] + v[7,2,3] = 1
 column[2,4]: v[0,2,4] + v[3,2,4] + v[4,2,4] + v[6,2,4] + v[7,2,4] = 1
 column[2,6]: v[0,2,6] + v[3,2,6] + v[4,2,6] + v[6,2,6] + v[7,2,6] = 1
 column[3,1]: v[0,3,1] + v[1,3,1] + v[2,3,1] + v[3,3,1] + v[4,3,1]
   + v[5,3,1] + v[8,3,1] = 1
 column[3,2]: v[0,3,2] + v[1,3,2] + v[2,3,2] + v[3,3,2] + v[4,3,2]
   + v[5,3,2] + v[8,3,2] = 1
 column[3,4]: v[0,3,4] + v[1,3,4] + v[2,3,4] + v[3,3,4] + v[4,3,4]
   + v[5,3,4] + v[8,3,4] = 1
 column[3,5]: v[0,3,5] + v[1,3,5] + v[2,3,5] + v[3,3,5] + v[4,3,5]
   + v[5,3,5] + v[8,3,5] = 1
 column[3,6]: v[0,3,6] + v[1,3,6] + v[2,3,6] + v[3,3,6] + v[4,3,6]
   + v[5,3,6] + v[8,3,6] = 1
 column[3,7]: v[0,3,7] + v[1,3,7] + v[2,3,7] + v[3,3,7] + v[4,3,7]
   + v[5,3,7] + v[8,3,7] = 1
 column[3,8]: v[0,3,8] + v[1,3,8] + v[2,3,8] + v[3,3,8] + v[4,3,8]
   + v[5,3,8] + v[8,3,8] = 1
 column[4,0]: v[0,4,0] + v[1,4,0] + v[2,4,0] + v[6,4,0] + v[7,4,0]
   + v[8,4,0] = 1
 column[4,1]: v[0,4,1] + v[1,4,1] + v[2,4,1] + v[6,4,1] + v[7,4,1]
   + v[8,4,1] = 1
 column[4,2]: v[0,4,2] + v[1,4,2] + v[2,4,2] + v[6,4,2] + v[7,4,2]
   + v[8,4,2] = 1
 column[4,3]: v[0,4,3] + v[1,4,3] + v[2,4,3] + v[6,4,3] + v[7,4,3]
   + v[8,4,3] = 1
 column[4,4]: v[0,4,4] + v[1,4,4] + v[2,4,4] + v[6,4,4] + v[7,4,4]
   + v[8,4,4] = 1
 column[4,7]: v[0,4,7] + v[1,4,7] + v[2,4,7] + v[6,4,7] + v[7,4,7]
   + v[8,4,7] = 1
 column[5,0]: v[0,5,0] + v[3,5,0] + v[4,5,0] + v[5,5,0] + v[6,5,0]
   + v[7,5,0] + v[8,5,0] = 1
 column[5,1]: v[0,5,1] + v[3,5,1] + v[4,5,1] + v[5,5,1] + v[6,5,1]
   + v[7,5,1] + v[8,5,1] = 1
 column[5,2]: v[0,5,2] + v[3,5,2] + v[4,5,2] + v[5,5,2] + v[6,5,2]
   + v[7,5,2] + v[8,5,2] = 1
 column[5,3]: v[0,5,3] + v[3,5,3] + v[4,5,3] + v[5,5,3] + v[6,5,3]
   + v[7,5,3] + v[8,5,3] = 1
 column[5,5]: v[0,5,5] + v[3,5,5] + v[4,5,5] + v[5,5,5] + v[6,5,5]
   + v[7,5,5] + v[8,5,5] = 1
 column[5,6]: v[0,5,6] + v[3,5,6] + v[4,5,6] + v[5,5,6] + v[6,5,6]
   + v[7,5,6] + v[8,5,6] = 1
 column[5,8]: v[0,5,8] + v[3,5,8] + v[4,5,8] + v[5,5,8] + v[6,5,8]
   + v[7,5,8] + v[8,5,8] = 1
 column[6,2]: v[1,6,2] + v[2,6,2] + v[4,6,2] + v[5,6,2] + v[8,6,2] = 1
 column[6,3]: v[1,6,3] + v[2,6,3] + v[4,6,3] + v[5,6,3] + v[8,6,3] = 1
 column[6,4]: v[1,6,4] + v[2,6,4] + v[4,6,4] + v[5,6,4] + v[8,6,4] = 1
 column[6,5]: v[1,6,5] + v[2,6,5] + v[4,6,5] + v[5,6,5] + v[8,6,5] = 1
 column[6,7]: v[1,6,7] + v[2,6,7] + v[4,6,7] + v[5,6,7] + v[8,6,7] = 1
 column[7,1]: v[2,7,1] + v[6,7,1] + v[7,7,1] = 1
 column[7,7]: v[2,7,7] + v[6,7,7] + v[7,7,7] = 1
 column[7,8]: v[2,7,8] + v[6,7,8] + v[7,7,8] = 1
 column[8,0]: v[3,8,0] + v[4,8,0] + v[5,8,0] + v[6,8,0] + v[7,8,0]
   + v[8,8,0] = 1
 column[8,1]: v[3,8,1] + v[4,8,1] + v[5,8,1] + v[6,8,1] + v[7,8,1]
   + v[8,8,1] = 1
 column[8,2]: v[3,8,2] + v[4,8,2] + v[5,8,2] + v[6,8,2] + v[7,8,2]
   + v[8,8,2] = 1
 column[8,4]: v[3,8,4] + v[4,8,4] + v[5,8,4] + v[6,8,4] + v[7,8,4]
   + v[8,8,4] = 1
 column[8,5]: v[3,8,5] + v[4,8,5] + v[5,8,5] + v[6,8,5] + v[7,8,5]
   + v[8,8,5] = 1
 column[8,6]: v[3,8,6] + v[4,8,6] + v[5,8,6] + v[6,8,6] + v[7,8,6]
   + v[8,8,6] = 1
 Sub[0,0,0]: v[0,0,0] + v[0,2,0] + v[1,0,0] + v[1,1,0] + v[2,0,0]
   + v[2,1,0] = 1
 Sub[0,0,2]: v[0,0,2] + v[0,2,2] + v[1,0,2] + v[1,1,2] + v[2,0,2]
   + v[2,1,2] = 1
 Sub[0,0,4]: v[0,0,4] + v[0,2,4] + v[1,0,4] + v[1,1,4] + v[2,0,4]
   + v[2,1,4] = 1
 Sub[0,0,6]: v[0,0,6] + v[0,2,6] + v[1,0,6] + v[1,1,6] + v[2,0,6]
   + v[2,1,6] = 1
 Sub[0,0,7]: v[0,0,7] + v[0,2,7] + v[1,0,7] + v[1,1,7] + v[2,0,7]
   + v[2,1,7] = 1
 Sub[0,0,8]: v[0,0,8] + v[0,2,8] + v[1,0,8] + v[1,1,8] + v[2,0,8]
   + v[2,1,8] = 1
 Sub[0,1,0]: v[0,3,0] + v[0,4,0] + v[0,5,0] + v[1,3,0] + v[1,4,0]
   + v[2,3,0] + v[2,4,0] = 1
 Sub[0,1,1]: v[0,3,1] + v[0,4,1] + v[0,5,1] + v[1,3,1] + v[1,4,1]
   + v[2,3,1] + v[2,4,1] = 1
 Sub[0,1,2]: v[0,3,2] + v[0,4,2] + v[0,5,2] + v[1,3,2] + v[1,4,2]
   + v[2,3,2] + v[2,4,2] = 1
 Sub[0,1,3]: v[0,3,3] + v[0,4,3] + v[0,5,3] + v[1,3,3] + v[1,4,3]
   + v[2,3,3] + v[2,4,3] = 1
 Sub[0,1,5]: v[0,3,5] + v[0,4,5] + v[0,5,5] + v[1,3,5] + v[1,4,5]
   + v[2,3,5] + v[2,4,5] = 1
 Sub[0,1,6]: v[0,3,6] + v[0,4,6] + v[0,5,6] + v[1,3,6] + v[1,4,6]
   + v[2,3,6] + v[2,4,6] = 1
 Sub[0,1,8]: v[0,3,8] + v[0,4,8] + v[0,5,8] + v[1,3,8] + v[1,4,8]
   + v[2,3,8] + v[2,4,8] = 1
 Sub[0,2,1]: v[1,6,1] + v[2,6,1] + v[2,7,1] = 1
 Sub[0,2,2]: v[1,6,2] + v[2,6,2] + v[2,7,2] = 1
 Sub[0,2,5]: v[1,6,5] + v[2,6,5] + v[2,7,5] = 1
 Sub[1,0,1]: v[3,0,1] + v[3,2,1] + v[4,0,1] + v[4,2,1] + v[5,0,1] = 1
 Sub[1,0,2]: v[3,0,2] + v[3,2,2] + v[4,0,2] + v[4,2,2] + v[5,0,2] = 1
 Sub[1,0,3]: v[3,0,3] + v[3,2,3] + v[4,0,3] + v[4,2,3] + v[5,0,3] = 1
 Sub[1,0,5]: v[3,0,5] + v[3,2,5] + v[4,0,5] + v[4,2,5] + v[5,0,5] = 1
 Sub[1,0,6]: v[3,0,6] + v[3,2,6] + v[4,0,6] + v[4,2,6] + v[5,0,6] = 1
 Sub[1,1,0]: v[3,3,0] + v[3,5,0] + v[4,3,0] + v[4,5,0] + v[5,3,0]
   + v[5,5,0] = 1
 Sub[1,1,1]: v[3,3,1] + v[3,5,1] + v[4,3,1] + v[4,5,1] + v[5,3,1]
   + v[5,5,1] = 1
 Sub[1,1,2]: v[3,3,2] + v[3,5,2] + v[4,3,2] + v[4,5,2] + v[5,3,2]
   + v[5,5,2] = 1
 Sub[1,1,3]: v[3,3,3] + v[3,5,3] + v[4,3,3] + v[4,5,3] + v[5,3,3]
   + v[5,5,3] = 1
 Sub[1,1,4]: v[3,3,4] + v[3,5,4] + v[4,3,4] + v[4,5,4] + v[5,3,4]
   + v[5,5,4] = 1
 Sub[1,1,7]: v[3,3,7] + v[3,5,7] + v[4,3,7] + v[4,5,7] + v[5,3,7]
   + v[5,5,7] = 1
 Sub[1,2,1]: v[3,8,1] + v[4,6,1] + v[4,8,1] + v[5,6,1] + v[5,8,1] = 1
 Sub[1,2,4]: v[3,8,4] + v[4,6,4] + v[4,8,4] + v[5,6,4] + v[5,8,4] = 1
 Sub[1,2,5]: v[3,8,5] + v[4,6,5] + v[4,8,5] + v[5,6,5] + v[5,8,5] = 1
 Sub[1,2,6]: v[3,8,6] + v[4,6,6] + v[4,8,6] + v[5,6,6] + v[5,8,6] = 1
 Sub[1,2,7]: v[3,8,7] + v[4,6,7] + v[4,8,7] + v[5,6,7] + v[5,8,7] = 1
 Sub[2,0,0]: v[6,1,0] + v[6,2,0] + v[7,2,0] = 1
 Sub[2,0,3]: v[6,1,3] + v[6,2,3] + v[7,2,3] = 1
 Sub[2,0,5]: v[6,1,5] + v[6,2,5] + v[7,2,5] = 1
 Sub[2,1,1]: v[6,4,1] + v[6,5,1] + v[7,4,1] + v[7,5,1] + v[8,3,1]
   + v[8,4,1] + v[8,5,1] = 1
 Sub[2,1,2]: v[6,4,2] + v[6,5,2] + v[7,4,2] + v[7,5,2] + v[8,3,2]
   + v[8,4,2] + v[8,5,2] = 1
 Sub[2,1,4]: v[6,4,4] + v[6,5,4] + v[7,4,4] + v[7,5,4] + v[8,3,4]
   + v[8,4,4] + v[8,5,4] = 1
 Sub[2,1,5]: v[6,4,5] + v[6,5,5] + v[7,4,5] + v[7,5,5] + v[8,3,5]
   + v[8,4,5] + v[8,5,5] = 1
 Sub[2,1,6]: v[6,4,6] + v[6,5,6] + v[7,4,6] + v[7,5,6] + v[8,3,6]
   + v[8,4,6] + v[8,5,6] = 1
 Sub[2,1,7]: v[6,4,7] + v[6,5,7] + v[7,4,7] + v[7,5,7] + v[8,3,7]
   + v[8,4,7] + v[8,5,7] = 1
 Sub[2,1,8]: v[6,4,8] + v[6,5,8] + v[7,4,8] + v[7,5,8] + v[8,3,8]
   + v[8,4,8] + v[8,5,8] = 1
 Sub[2,2,0]: v[6,7,0] + v[6,8,0] + v[7,7,0] + v[7,8,0] + v[8,6,0]
   + v[8,8,0] = 1
 Sub[2,2,2]: v[6,7,2] + v[6,8,2] + v[7,7,2] + v[7,8,2] + v[8,6,2]
   + v[8,8,2] = 1
 Sub[2,2,3]: v[6,7,3] + v[6,8,3] + v[7,7,3] + v[7,8,3] + v[8,6,3]
   + v[8,8,3] = 1
 Sub[2,2,4]: v[6,7,4] + v[6,8,4] + v[7,7,4] + v[7,8,4] + v[8,6,4]
   + v[8,8,4] = 1
 Sub[2,2,7]: v[6,7,7] + v[6,8,7] + v[7,7,7] + v[7,8,7] + v[8,6,7]
   + v[8,8,7] = 1
 Sub[2,2,8]: v[6,7,8] + v[6,8,8] + v[7,7,8] + v[7,8,8] + v[8,6,8]
   + v[8,8,8] = 1
Bounds
 v[0,1,3] = 1
 v[0,6,0] = 1
 v[0,7,6] = 1
 v[0,8,8] = 1
 v[1,2,1] = 1
 v[1,5,7] = 1
 v[1,7,4] = 1
 v[1,8,3] = 1
 v[2,2,5] = 1
 v[2,5,4] = 1
 v[2,8,7] = 1
 v[3,1,7] = 1
 v[3,4,6] = 1
 v[3,6,8] = 1
 v[3,7,0] = 1
 v[4,1,4] = 1
 v[4,4,8] = 1
 v[4,7,2] = 1
 v[5,1,0] = 1
 v[5,2,8] = 1
 v[5,4,5] = 1
 v[5,7,3] = 1
 v[6,0,2] = 1
 v[6,3,3] = 1
 v[6,6,6] = 1
 v[7,0,4] = 1
 v[7,1,6] = 1
 v[7,3,0] = 1
 v[7,6,1] = 1
 v[8,0,8] = 1
 v[8,1,1] = 1
 v[8,2,7] = 1
 v[8,7,5] = 1
Binaries
 v[0,0,0] v[0,0,1] v[0,0,2] v[0,0,3] v[0,0,4] v[0,0,5] v[0,0,6] v[0,0,7]
 v[0,0,8] v[0,1,3] v[0,2,0] v[0,2,1] v[0,2,2] v[0,2,3] v[0,2,4] v[0,2,5]
 v[0,2,6] v[0,2,7] v[0,2,8] v[0,3,0] v[0,3,1] v[0,3,2] v[0,3,3] v[0,3,4]
 v[0,3,5] v[0,3,6] v[0,3,7] v[0,3,8] v[0,4,0] v[0,4,1] v[0,4,2] v[0,4,3]
 v[0,4,4] v[0,4,5] v[0,4,6] v[0,4,7] v[0,4,8] v[0,5,0] v[0,5,1] v[0,5,2]
 v[0,5,3] v[0,5,4] v[0,5,5] v[0,5,6] v[0,5,7] v[0,5,8] v[0,6,0] v[0,7,6]
 v[0,8,8] v[1,0,0] v[1,0,1] v[1,0,2] v[1,0,3] v[1,0,4] v[1,0,5] v[1,0,6]
 v[1,0,7] v[1,0,8] v[1,1,0] v[1,1,1] v[1,1,2] v[1,1,3] v[1,1,4] v[1,1,5]
 v[1,1,6] v[1,1,7] v[1,1,8] v[1,2,1] v[1,3,0] v[1,3,1] v[1,3,2] v[1,3,3]
 v[1,3,4] v[1,3,5] v[1,3,6] v[1,3,7] v[1,3,8] v[1,4,0] v[1,4,1] v[1,4,2]
 v[1,4,3] v[1,4,4] v[1,4,5] v[1,4,6] v[1,4,7] v[1,4,8] v[1,5,7] v[1,6,0]
 v[1,6,1] v[1,6,2] v[1,6,3] v[1,6,4] v[1,6,5] v[1,6,6] v[1,6,7] v[1,6,8]
 v[1,7,4] v[1,8,3] v[2,0,0] v[2,0,1] v[2,0,2] v[2,0,3] v[2,0,4] v[2,0,5]
 v[2,0,6] v[2,0,7] v[2,0,8] v[2,1,0] v[2,1,1] v[2,1,2] v[2,1,3] v[2,1,4]
 v[2,1,5] v[2,1,6] v[2,1,7] v[2,1,8] v[2,2,5] v[2,3,0] v[2,3,1] v[2,3,2]
 v[2,3,3] v[2,3,4] v[2,3,5] v[2,3,6] v[2,3,7] v[2,3,8] v[2,4,0] v[2,4,1]
 v[2,4,2] v[2,4,3] v[2,4,4] v[2,4,5] v[2,4,6] v[2,4,7] v[2,4,8] v[2,5,4]
 v[2,6,0] v[2,6,1] v[2,6,2] v[2,6,3] v[2,6,4] v[2,6,5] v[2,6,6] v[2,6,7]
 v[2,6,8] v[2,7,0] v[2,7,1] v[2,7,2] v[2,7,3] v[2,7,4] v[2,7,5] v[2,7,6]
 v[2,7,7] v[2,7,8] v[2,8,7] v[3,0,0] v[3,0,1] v[3,0,2] v[3,0,3] v[3,0,4]
 v[3,0,5] v[3,0,6] v[3,0,7] v[3,0,8] v[3,1,7] v[3,2,0] v[3,2,1] v[3,2,2]
 v[3,2,3] v[3,2,4] v[3,2,5] v[3,2,6] v[3,2,7] v[3,2,8] v[3,3,0] v[3,3,1]
 v[3,3,2] v[3,3,3] v[3,3,4] v[3,3,5] v[3,3,6] v[3,3,7] v[3,3,8] v[3,4,6]
 v[3,5,0] v[3,5,1] v[3,5,2] v[3,5,3] v[3,5,4] v[3,5,5] v[3,5,6] v[3,5,7]
 v[3,5,8] v[3,6,8] v[3,7,0] v[3,8,0] v[3,8,1] v[3,8,2] v[3,8,3] v[3,8,4]
 v[3,8,5] v[3,8,6] v[3,8,7] v[3,8,8] v[4,0,0] v[4,0,1] v[4,0,2] v[4,0,3]
 v[4,0,4] v[4,0,5] v[4,0,6] v[4,0,7] v[4,0,8] v[4,1,4] v[4,2,0] v[4,2,1]
 v[4,2,2] v[4,2,3] v[4,2,4] v[4,2,5] v[4,2,6] v[4,2,7] v[4,2,8] v[4,3,0]
 v[4,3,1] v[4,3,2] v[4,3,3] v[4,3,4] v[4,3,5] v[4,3,6] v[4,3,7] v[4,3,8]
 v[4,4,8] v[4,5,0] v[4,5,1] v[4,5,2] v[4,5,3] v[4,5,4] v[4,5,5] v[4,5,6]
 v[4,5,7] v[4,5,8] v[4,6,0] v[4,6,1] v[4,6,2] v[4,6,3] v[4,6,4] v[4,6,5]
 v[4,6,6] v[4,6,7] v[4,6,8] v[4,7,2] v[4,8,0] v[4,8,1] v[4,8,2] v[4,8,3]
 v[4,8,4] v[4,8,5] v[4,8,6] v[4,8,7] v[4,8,8] v[5,0,0] v[5,0,1] v[5,0,2]
 v[5,0,3] v[5,0,4] v[5,0,5] v[5,0,6] v[5,0,7] v[5,0,8] v[5,1,0] v[5,2,8]
 v[5,3,0] v[5,3,1] v[5,3,2] v[5,3,3] v[5,3,4] v[5,3,5] v[5,3,6] v[5,3,7]
 v[5,3,8] v[5,4,5] v[5,5,0] v[5,5,1] v[5,5,2] v[5,5,3] v[5,5,4] v[5,5,5]
 v[5,5,6] v[5,5,7] v[5,5,8] v[5,6,0] v[5,6,1] v[5,6,2] v[5,6,3] v[5,6,4]
 v[5,6,5] v[5,6,6] v[5,6,7] v[5,6,8] v[5,7,3] v[5,8,0] v[5,8,1] v[5,8,2]
 v[5,8,3] v[5,8,4] v[5,8,5] v[5,8,6] v[5,8,7] v[5,8,8] v[6,0,2] v[6,1,0]
 v[6,1,1] v[6,1,2] v[6,1,3] v[6,1,4] v[6,1,5] v[6,1,6] v[6,1,7] v[6,1,8]
 v[6,2,0] v[6,2,1] v[6,2,2] v[6,2,3] v[6,2,4] v[6,2,5] v[6,2,6] v[6,2,7]
 v[6,2,8] v[6,3,3] v[6,4,0] v[6,4,1] v[6,4,2] v[6,4,3] v[6,4,4] v[6,4,5]
 v[6,4,6] v[6,4,7] v[6,4,8] v[6,5,0] v[6,5,1] v[6,5,2] v[6,5,3] v[6,5,4]
 v[6,5,5] v[6,5,6] v[6,5,7] v[6,5,8] v[6,6,6] v[6,7,0] v[6,7,1] v[6,7,2]
 v[6,7,3] v[6,7,4] v[6,7,5] v[6,7,6] v[6,7,7] v[6,7,8] v[6,8,0] v[6,8,1]
 v[6,8,2] v[6,8,3] v[6,8,4] v[6,8,5] v[6,8,6] v[6,8,7] v[6,8,8] v[7,0,4]
 v[7,1,6] v[7,2,0] v[7,2,1] v[7,2,2] v[7,2,3] v[7,2,4] v[7,2,5] v[7,2,6]
 v[7,2,7] v[7,2,8] v[7,3,0] v[7,4,0] v[7,4,1] v[7,4,2] v[7,4,3] v[7,4,4]
 v[7,4,5] v[7,4,6] v[7,4,7] v[7,4,8] v[7,5,0] v[7,5,1] v[7,5,2] v[7,5,3]
 v[7,5,4] v[7,5,5] v[7,5,6] v[7,5,7] v[7,5,8] v[7,6,1] v[7,7,0] v[7,7,1]
 v[7,7,2] v[7,7,3] v[7,7,4] v[7,7,5] v[7,7,6] v[7,7,7] v[7,7,8] v[7,8,0]
 v[7,8,1] v[7,8,2] v[7,8,3] v[7,8,4] v[7,8,5] v[7,8,6] v[7,8,7] v[7,8,8]
 v[8,0,8] v[8,1,1] v[8,2,7] v[8,3,0] v[8,3,1] v[8,3,2] v[8,3,3] v[8,3,4]
 v[8,3,5] v[8,3,6] v[8,3,7] v[8,3,8] v[8,4,0] v[8,4,1] v[8,4,2] v[8,4,3]
 v[8,4,4] v[8,4,5] v[8,4,6] v[8,4,7] v[8,4,8] v[8,5,0] v[8,5,1] v[8,5,2]
 v[8,5,3] v[8,5,4] v[8,5,5] v[8,5,6] v[8,5,7] v[8,5,8] v[8,6,0] v[8,6,1]
 v[8,6,2] v[8,6,3] v[8,6,4] v[8,6,5] v[8,6,6] v[8,6,7] v[8,6,8] v[8,7,5]
 v[8,8,0] v[8,8,1] v[8,8,2] v[8,8,3] v[8,8,4] v[8,8,5] v[8,8,6] v[8,8,7]
 v[8,8,8]
End
